(set-info :smt-lib-version 2.6)
(set-logic QF_FP)
(set-info :source |
Generated by: Chenqi Cui
Generated on: 2025-10-11
Generator: AutoSMTGen
Application: Generating SMT constraints with small solution spaces to make them challenging for SMT solvers
Target solver: Z3, CVC5, Bitwuzla
|)
(set-info :license "https://creativecommons.org/licenses/by/4.0/")
(set-info :category "industrial")
(set-info :status sat)
; benchmark generated from python API

(declare-fun x6 () (_ FloatingPoint 11 53))
(declare-fun x5 () (_ FloatingPoint 11 53))
(declare-fun x4 () (_ FloatingPoint 11 53))
(declare-fun x3 () (_ FloatingPoint 11 53))
(declare-fun x2 () (_ FloatingPoint 11 53))
(declare-fun x1 () (_ FloatingPoint 11 53))
(declare-fun x0 () (_ FloatingPoint 11 53))
(assert
 (let ((?x17 (fp.add roundNearestTiesToEven (fp.mul roundNearestTiesToEven (fp #b0 #b10000000011 #x8aa721a6f791f) x0) (fp.mul roundNearestTiesToEven (fp #b1 #b10000000100 #x832c62c7d9d39) x1))))
 (let ((?x20 (fp.add roundNearestTiesToEven ?x17 (fp.mul roundNearestTiesToEven (fp #b0 #b10000000100 #x90fb446bcffba) x2))))
 (let ((?x23 (fp.add roundNearestTiesToEven ?x20 (fp.mul roundNearestTiesToEven (fp #b1 #b10000000101 #x6cf5874bc7509) x3))))
 (let ((?x26 (fp.add roundNearestTiesToEven ?x23 (fp.mul roundNearestTiesToEven (fp #b1 #b10000000100 #x4a1059a495411) x4))))
 (let ((?x29 (fp.add roundNearestTiesToEven ?x26 (fp.mul roundNearestTiesToEven (fp #b1 #b10000000101 #x6c235a517fba4) x5))))
 (let ((?x32 (fp.add roundNearestTiesToEven ?x29 (fp.mul roundNearestTiesToEven (fp #b1 #b10000000101 #x2723be02a688e) x6))))
 (fp.leq ?x32 (fp #b0 #b10000000100 #x2cf885cd5ffc2)))))))))
(assert
 (let ((?x56 (fp.add roundNearestTiesToEven (fp.mul roundNearestTiesToEven (fp #b1 #b10000000100 #x79441d075be4f) x0) (fp.mul roundNearestTiesToEven (fp #b1 #b10000000101 #x659b1dd206dcf) x1))))
 (let ((?x59 (fp.add roundNearestTiesToEven ?x56 (fp.mul roundNearestTiesToEven (fp #b0 #b10000000100 #x40cd9f94c3e2c) x2))))
 (let ((?x62 (fp.add roundNearestTiesToEven ?x59 (fp.mul roundNearestTiesToEven (fp #b0 #b10000000011 #xfb83f5b8bf349) x3))))
 (let ((?x65 (fp.add roundNearestTiesToEven ?x62 (fp.mul roundNearestTiesToEven (fp #b1 #b10000000100 #x03f19f275b74d) x4))))
 (let ((?x68 (fp.add roundNearestTiesToEven ?x65 (fp.mul roundNearestTiesToEven (fp #b1 #b10000000010 #xdba23491da96c) x5))))
 (let ((?x71 (fp.add roundNearestTiesToEven ?x68 (fp.mul roundNearestTiesToEven (fp #b1 #b10000000101 #x251f82cb2ac2f) x6))))
 (fp.leq ?x71 (fp #b0 #b10000000101 #x026f425b34a2a)))))))))
(assert
 (let ((?x78 (fp.add roundNearestTiesToEven (fp.mul roundNearestTiesToEven (fp #b1 #b10000000101 #x63f8d0c4e9ca5) x0) (fp.mul roundNearestTiesToEven (fp #b0 #b10000000101 #x340802fe491fb) x1))))
 (let ((?x81 (fp.add roundNearestTiesToEven ?x78 (fp.mul roundNearestTiesToEven (fp #b0 #b10000000101 #x361172929be7e) x2))))
 (let ((?x84 (fp.add roundNearestTiesToEven ?x81 (fp.mul roundNearestTiesToEven (fp #b0 #b10000000101 #x34aa65dff4da1) x3))))
 (let ((?x87 (fp.add roundNearestTiesToEven ?x84 (fp.mul roundNearestTiesToEven (fp #b1 #b10000000100 #xd5aeae726296c) x4))))
 (let ((?x90 (fp.add roundNearestTiesToEven ?x87 (fp.mul roundNearestTiesToEven (fp #b0 #b10000000011 #xe2b0774fc2e83) x5))))
 (let ((?x93 (fp.add roundNearestTiesToEven ?x90 (fp.mul roundNearestTiesToEven (fp #b0 #b10000000011 #xca80d8e867195) x6))))
 (fp.leq ?x93 (fp #b1 #b10000000011 #x36d94b7741ea7)))))))))
(assert
 (let ((?x100 (fp.add roundNearestTiesToEven (fp.mul roundNearestTiesToEven (fp #b1 #b10000000101 #x4c14650aab539) x0) (fp.mul roundNearestTiesToEven (fp #b1 #b10000000001 #x3ffa070337dda) x1))))
 (let ((?x103 (fp.add roundNearestTiesToEven ?x100 (fp.mul roundNearestTiesToEven (fp #b0 #b10000000011 #x50e15d047656c) x2))))
 (let ((?x106 (fp.add roundNearestTiesToEven ?x103 (fp.mul roundNearestTiesToEven (fp #b1 #b10000000010 #x22bd5007413a3) x3))))
 (let ((?x109 (fp.add roundNearestTiesToEven ?x106 (fp.mul roundNearestTiesToEven (fp #b1 #b10000000001 #x1ec6d55c336c6) x4))))
 (let ((?x112 (fp.add roundNearestTiesToEven ?x109 (fp.mul roundNearestTiesToEven (fp #b1 #b01111111111 #x4538f37bffcb0) x5))))
 (let ((?x115 (fp.add roundNearestTiesToEven ?x112 (fp.mul roundNearestTiesToEven (fp #b1 #b10000000011 #xb3e5937e79bab) x6))))
 (fp.leq ?x115 (fp #b0 #b10000000011 #xf49a44d7dcff1)))))))))
(assert
 (let ((?x122 (fp.add roundNearestTiesToEven (fp.mul roundNearestTiesToEven (fp #b0 #b10000000011 #x8110bdc0eed93) x0) (fp.mul roundNearestTiesToEven (fp #b0 #b10000000101 #x257284cadfaed) x1))))
 (let ((?x125 (fp.add roundNearestTiesToEven ?x122 (fp.mul roundNearestTiesToEven (fp #b1 #b10000000011 #xfbbb09a2baf3c) x2))))
 (let ((?x128 (fp.add roundNearestTiesToEven ?x125 (fp.mul roundNearestTiesToEven (fp #b0 #b10000000101 #x421d7fe0c16bd) x3))))
 (let ((?x131 (fp.add roundNearestTiesToEven ?x128 (fp.mul roundNearestTiesToEven (fp #b1 #b10000000101 #x54a573de7b33c) x4))))
 (let ((?x134 (fp.add roundNearestTiesToEven ?x131 (fp.mul roundNearestTiesToEven (fp #b1 #b10000000101 #x1270f5d13cac1) x5))))
 (let ((?x137 (fp.add roundNearestTiesToEven ?x134 (fp.mul roundNearestTiesToEven (fp #b0 #b10000000101 #x7a9a87a971a9c) x6))))
 (fp.leq ?x137 (fp #b1 #b10000000100 #xd7c49db077edf)))))))))
(assert
 (let ((?x144 (fp.add roundNearestTiesToEven (fp.mul roundNearestTiesToEven (fp #b1 #b10000000101 #x2703ac895e748) x0) (fp.mul roundNearestTiesToEven (fp #b0 #b10000000101 #x638e77b62f774) x1))))
 (let ((?x147 (fp.add roundNearestTiesToEven ?x144 (fp.mul roundNearestTiesToEven (fp #b1 #b10000000011 #x2f1ecca6dc927) x2))))
 (let ((?x150 (fp.add roundNearestTiesToEven ?x147 (fp.mul roundNearestTiesToEven (fp #b0 #b10000000011 #x32061f3c7bc9f) x3))))
 (let ((?x153 (fp.add roundNearestTiesToEven ?x150 (fp.mul roundNearestTiesToEven (fp #b1 #b10000000100 #xd2d9927dd286e) x4))))
 (let ((?x156 (fp.add roundNearestTiesToEven ?x153 (fp.mul roundNearestTiesToEven (fp #b0 #b10000000101 #x73c6cd323c702) x5))))
 (let ((?x159 (fp.add roundNearestTiesToEven ?x156 (fp.mul roundNearestTiesToEven (fp #b1 #b10000000100 #x638489615f0eb) x6))))
 (fp.leq ?x159 (fp #b1 #b10000000100 #xf8be54c1b3ed7)))))))))
(assert
 (let ((?x166 (fp.add roundNearestTiesToEven (fp.mul roundNearestTiesToEven (fp #b0 #b10000000010 #xc86bae7080436) x0) (fp.mul roundNearestTiesToEven (fp #b0 #b10000000100 #x9044ecaf24c33) x1))))
 (let ((?x169 (fp.add roundNearestTiesToEven ?x166 (fp.mul roundNearestTiesToEven (fp #b0 #b10000000101 #x6fe8d5d5fca44) x2))))
 (let ((?x172 (fp.add roundNearestTiesToEven ?x169 (fp.mul roundNearestTiesToEven (fp #b1 #b10000000010 #x1d27304800a7f) x3))))
 (let ((?x175 (fp.add roundNearestTiesToEven ?x172 (fp.mul roundNearestTiesToEven (fp #b0 #b10000000100 #xeab9a86285974) x4))))
 (let ((?x178 (fp.add roundNearestTiesToEven ?x175 (fp.mul roundNearestTiesToEven (fp #b1 #b10000000010 #x70849ecf1965c) x5))))
 (let ((?x181 (fp.add roundNearestTiesToEven ?x178 (fp.mul roundNearestTiesToEven (fp #b1 #b10000000101 #x6fa2ad50e55f2) x6))))
 (fp.leq ?x181 (fp #b1 #b10000000011 #x71dc466053c78)))))))))
(assert
 (let ((?x188 (fp.add roundNearestTiesToEven (fp.mul roundNearestTiesToEven (fp #b1 #b10000000101 #x77846d03c986a) x0) (fp.mul roundNearestTiesToEven (fp #b0 #b10000000101 #x133a4aa03e6af) x1))))
 (let ((?x191 (fp.add roundNearestTiesToEven ?x188 (fp.mul roundNearestTiesToEven (fp #b0 #b10000000101 #x142d0da5cde4a) x2))))
 (let ((?x194 (fp.add roundNearestTiesToEven ?x191 (fp.mul roundNearestTiesToEven (fp #b0 #b10000000011 #xb662056542fbd) x3))))
 (let ((?x197 (fp.add roundNearestTiesToEven ?x194 (fp.mul roundNearestTiesToEven (fp #b0 #b10000000011 #x3bb7662992734) x4))))
 (let ((?x200 (fp.add roundNearestTiesToEven ?x197 (fp.mul roundNearestTiesToEven (fp #b1 #b10000000100 #x30de90cdbcba6) x5))))
 (let ((?x203 (fp.add roundNearestTiesToEven ?x200 (fp.mul roundNearestTiesToEven (fp #b0 #b10000000011 #x1c2ca1bb71918) x6))))
 (fp.leq ?x203 (fp #b0 #b10000000100 #x5d8fe8bef37f3)))))))))
(assert
 (let ((?x210 (fp.add roundNearestTiesToEven (fp.mul roundNearestTiesToEven (fp #b0 #b10000000100 #x8768cd6b35c74) x0) (fp.mul roundNearestTiesToEven (fp #b1 #b10000000101 #x68e8af807d265) x1))))
(let ((?x213 (fp.add roundNearestTiesToEven ?x210 (fp.mul roundNearestTiesToEven (fp #b1 #b10000000101 #x4239225d76f00) x2))))
(let ((?x216 (fp.add roundNearestTiesToEven ?x213 (fp.mul roundNearestTiesToEven (fp #b1 #b10000000101 #x1fc9437951362) x3))))
(let ((?x219 (fp.add roundNearestTiesToEven ?x216 (fp.mul roundNearestTiesToEven (fp #b0 #b10000000101 #x1fc0ea2277033) x4))))
(let ((?x222 (fp.add roundNearestTiesToEven ?x219 (fp.mul roundNearestTiesToEven (fp #b0 #b10000000100 #x3fd6b472cfd1c) x5))))
(let ((?x225 (fp.add roundNearestTiesToEven ?x222 (fp.mul roundNearestTiesToEven (fp #b1 #b10000000001 #x9f90369e084c5) x6))))
(fp.leq ?x225 (fp #b0 #b10000000100 #x73d3e5127fa1d)))))))))
(check-sat)
(exit)
